100 10
255 507
902 595
312 629
532 396
223 435
606 944
255 342
250 177
795 407
836 485
542 928
526 392
406 650
749 664
677 228
612 560
529 376
659 249
257 344
397 697
771 502
816 856
506 394
433 594
640 618
626 359
415 255
512 411
782 458
308 569
583 562
558 598
554 236
260 476
424 232
613 528
861 401
541 666
230 411
428 398
563 240
277 850
413 574
239 262
661 118
678 687
163 411
514 260
582 332
84 311
556 402
207 434
433 483
483 543
210 191
349 469
612 532
340 729
573 495
322 211
483 580
814 416
375 367
257 285
306 664
831 489
277 517
527 298
610 522
414 561
347 283
891 686
574 426
355 568
496 724
248 254
727 599
520 534
813 458
797 962
523 423
549 693
391 581
124 192
668 160
418 627
224 819
227 208
641 618
250 899
468 577
318 328
373 815
685 342
356 287
667 645
348 555
369 613
665 653
396 487
